DATASET = "thpack6";
INSTANCE = "070";

WIDTH = 233;
HEIGHT = 220;
LENGTH = 587;

NO_OF_SHAPES = 15;
size = [|
  56,32,28 |
  92,68,39 |
  90,86,29 |
  73,54,52 |
  114,100,45 |
  94,51,36 |
  108,59,38 |
  89,82,61 |
  81,71,43 |
  61,53,37 |
  85,70,58 |
  111,98,39 |
  66,62,59 |
  117,87,49 |
  70,62,40 |
|];

verticality = [|
  0,1,1 |
  0,1,1 |
  0,0,1 |
  1,1,1 |
  0,0,1 |
  0,1,1 |
  0,1,1 |
  1,1,1 |
  1,1,1 |
  1,1,1 |
  1,1,1 |
  0,0,1 |
  1,1,1 |
  0,1,1 |
  1,1,1 |
|];

box_count = [
  6,
  6,
  9,
  4,
  9,
  9,
  9,
  9,
  11,
  5,
  8,
  4,
  6,
  6,
  5,
];
